--- Command ---
python3 synplicate.py experiments/theorem_prover/ --solver=milp_solver_naive

--- Return Code: 0 ---

--- Standard Output (stdout) ---
Executing PAC procedure for ((0.05, 0.03))...
Extracting synthesis configuration... 
F1:4:1,
F10:3:1
experiments/theorem_prover//
(7, {'F1': 4, 'F10': 3}, {'F1': 1, 'F10': 1}, {'H1': 2}, {'F1': <function F1 at 0x7b86c270cdc0>, 'F10': <function F10 at 0x7b86c270cee0>, 'H1': <function H1 at 0x7b86c270cf70>}, False)
Using 31268 samples ...
--- Found cache file 'experiments/theorem_prover/sampler_cache_theorem_prover.pkl'. Loading samples. ---

--- WARNING: All 3731 unique feature combinations have been generated. Cannot generate more. ---
--- Returning all available samples. ---
Got 3731 samples ...
--- Head of Samples (first 5) ---
Sample 1: Features: (('F1', 0.54), ('F10', 4.1)) -> Label: [('H1', 1)]
Sample 2: Features: (('F1', 0.78), ('F10', 3.8)) -> Label: [('H1', 1)]
Sample 3: Features: (('F1', 0.65), ('F10', 2.7)) -> Label: [('H1', 1)]
Sample 4: Features: (('F1', 0.17), ('F10', 4.1)) -> Label: [('H1', 1)]
Sample 5: Features: (('F1', 0.37), ('F10', 3.4)) -> Label: [('H1', 1)]
---------------------------------
=================================
 Exploring solution in region [0,100,0]
=================================
|---Estimated maximum explanation score: 14
Translating to dimacs...
Translating to wcnfdimacs...
|---Extracting soft variables...
|---Estimated maximum explanation score: 14
|---Extracting threshold variables...
|---Writing WCNF File...
Using MILP solver: milp_solver_naive
Set parameter WLSAccessID
Set parameter WLSSecret
Set parameter LicenseID to value 2713262
Academic license 2713262 - for non-commercial use only - registered to hi___@iitb.ac.in
Set parameter OutputFlag to value 1
Max Sat...
Gurobi Optimizer version 13.0.0 build v13.0.0rc1 (linux64 - "Zorin OS 17.3")

CPU model: 12th Gen Intel(R) Core(TM) i5-12450H, instruction set [SSE2|AVX|AVX2]
Thread count: 12 physical cores, 12 logical processors, using up to 12 threads

Academic license 2713262 - for non-commercial use only - registered to hi___@iitb.ac.in
Optimize a model with 8954 rows, 3124 columns and 20625 nonzeros (Min)
Model fingerprint: 0x578731f9
Model has 39 linear objective coefficients
Variable types: 0 continuous, 3124 integer (3124 binary)
Coefficient statistics:
  Matrix range     [1e+00, 1e+00]
  Objective range  [1e+01, 3e+02]
  Bounds range     [1e+00, 1e+00]
  RHS range        [1e+00, 2e+00]
Presolve removed 5350 rows and 2445 columns
Presolve time: 0.09s
Presolved: 3604 rows, 679 columns, 12083 nonzeros
Variable types: 0 continuous, 679 integer (679 binary)
Found heuristic solution: objective 3878.0000000

Root relaxation: objective 2.926000e+03, 670 iterations, 0.01 seconds (0.02 work units)

    Nodes    |    Current Node    |     Objective Bounds      |     Work
 Expl Unexpl |  Obj  Depth IntInf | Incumbent    BestBd   Gap | It/Node Time

     0     0 2926.00000    0  286 3878.00000 2926.00000  24.5%     -    0s
     0     0 3724.00000    0  325 3878.00000 3724.00000  3.97%     -    0s
     0     0 3724.00000    0  322 3878.00000 3724.00000  3.97%     -    0s
H    0     0                    3822.0000000 3724.00000  2.56%     -    0s
     0     0 3724.00000    0  270 3822.00000 3724.00000  2.56%     -    0s
H    0     0                    3808.0000000 3724.00000  2.21%     -    0s
     0     0 3724.00000    0  267 3808.00000 3724.00000  2.21%     -    0s
     0     0 3724.00000    0  267 3808.00000 3724.00000  2.21%     -    0s
     0     0 3724.00000    0   96 3808.00000 3724.00000  2.21%     -    0s
     0     0 3724.00000    0  115 3808.00000 3724.00000  2.21%     -    0s
     0     0 3724.00000    0  189 3808.00000 3724.00000  2.21%     -    0s
     0     0 3724.00000    0  189 3808.00000 3724.00000  2.21%     -    0s
     0     0 3724.00000    0  173 3808.00000 3724.00000  2.21%     -    0s
     0     0 3724.00000    0  150 3808.00000 3724.00000  2.21%     -    0s
     0     0 3724.00000    0   99 3808.00000 3724.00000  2.21%     -    0s
     0     0 3724.00000    0  250 3808.00000 3724.00000  2.21%     -    0s
     0     0 3724.00000    0  225 3808.00000 3724.00000  2.21%     -    0s
     0     0 3724.00000    0  128 3808.00000 3724.00000  2.21%     -    0s
     0     0 3724.00000    0  128 3808.00000 3724.00000  2.21%     -    0s
     0     0 3724.00000    0   81 3808.00000 3724.00000  2.21%     -    0s
     0     2 3724.00000    0   81 3808.00000 3724.00000  2.21%     -    1s
  5205  1331 3742.90000   13  160 3808.00000 3731.00000  2.02%  48.7    5s
  7452  1020 3766.00000   23  137 3808.00000 3752.00000  1.47%  56.6   10s

Cutting planes:
  Gomory: 22
  Cover: 41
  Implied bound: 99
  Clique: 22
  MIR: 16
  StrongCG: 2
  Flow cover: 338
  GUB cover: 3
  Inf proof: 99
  Zero half: 78
  RLT: 93
  Relax-and-lift: 10
  BQP: 4

Explored 10715 nodes (642248 simplex iterations) in 12.98 seconds (10.44 work units)
Thread count was 12 (of 12 available processors)

Solution count 3: 3808 3822 3878 

Optimal solution found (tolerance 1.00e-04)
Best objective 3.808000000000e+03, best bound 3.808000000000e+03, gap 0.0000%
Total cost:3808.0
['F1', 'F10']
SatSamples :3040
explainibilityReward: 1862
correctnessReward: 3040
experiments/theorem_prover//
Extracting program from witness...
(6,2) -> H1_0
(6,1) -> H1_1
(6,0) -> H1_0
(5,3) -> H1_0
(5,2) -> H1_0
(5,1) -> H1_0
(5,0) -> H1_0
(4,3) -> H1_1
(4,2) -> H1_1
(4,1) -> H1_0
(4,0) -> H1_1
(3,2) -> H1_1
(3,1) -> 5
(3,0) -> 5
(2,3) -> 5
(2,2) -> 5
(2,1) -> H1_0
(2,0) -> 5
(1,2) -> 4
(1,1) -> 4
(1,0) -> H1_0
(0,2) -> H1_1
(0,1) -> H1_1
(0,0) -> H1_0
0: F10
Synthesized program: experiments/theorem_prover//program/program_ms_0_100_0_erm.py
Visualization: experiments/theorem_prover//program/program_ms_0_100_0_erm.dot
Synthesis time:15.840979984990554
Accuracy:0.8147949611364246 (3040/3731)
Explainability: 0.49906191369606
Adding region (0,49,0.8147949611364246)
Adding region (49,100,0)
=================================
Pareto-optimal solutions: 
 [('experiments/theorem_prover//program/program_ms_0_100_0_erm.py', 0.8147949611364246, 0.49906191369606)]


--- Standard Error (stderr) ---
2025-11-24 16:15:30.471305: I tensorflow/core/util/port.cc:113] oneDNN custom operations are on. You may see slightly different numerical results due to floating-point round-off errors from different computation orders. To turn them off, set the environment variable `TF_ENABLE_ONEDNN_OPTS=0`.
2025-11-24 16:15:30.473015: I external/local_tsl/tsl/cuda/cudart_stub.cc:31] Could not find cuda drivers on your machine, GPU will not be used.
2025-11-24 16:15:30.502591: E external/local_xla/xla/stream_executor/cuda/cuda_dnn.cc:9261] Unable to register cuDNN factory: Attempting to register factory for plugin cuDNN when one has already been registered
2025-11-24 16:15:30.502622: E external/local_xla/xla/stream_executor/cuda/cuda_fft.cc:607] Unable to register cuFFT factory: Attempting to register factory for plugin cuFFT when one has already been registered
2025-11-24 16:15:30.503494: E external/local_xla/xla/stream_executor/cuda/cuda_blas.cc:1515] Unable to register cuBLAS factory: Attempting to register factory for plugin cuBLAS when one has already been registered
2025-11-24 16:15:30.508159: I external/local_tsl/tsl/cuda/cudart_stub.cc:31] Could not find cuda drivers on your machine, GPU will not be used.
2025-11-24 16:15:30.508315: I tensorflow/core/platform/cpu_feature_guard.cc:182] This TensorFlow binary is optimized to use available CPU instructions in performance-critical operations.
To enable the following instructions: AVX2 AVX_VNNI FMA, in other operations, rebuild TensorFlow with the appropriate compiler flags.
2025-11-24 16:15:31.080951: W tensorflow/compiler/tf2tensorrt/utils/py_utils.cc:38] TF-TRT Warning: Could not find TensorRT
